c Counting Principle: 10 divided in parts of size 2.
c Generated with `cnfgen`
c (C) 2012-2018 Massimo Lauria <lauria.massimo@gmail.com>
c https://massimolauria.github.io/cnfgen
c
c COMMAND LINE: cnfgen count 10 2
c
p cnf 45 370
-1 -2 0
-1 -3 0
-1 -4 0
-1 -5 0
-1 -6 0
-1 -7 0
-1 -8 0
-1 -9 0
-2 -3 0
-2 -4 0
-2 -5 0
-2 -6 0
-2 -7 0
-2 -8 0
-2 -9 0
-3 -4 0
-3 -5 0
-3 -6 0
-3 -7 0
-3 -8 0
-3 -9 0
-4 -5 0
-4 -6 0
-4 -7 0
-4 -8 0
-4 -9 0
-5 -6 0
-5 -7 0
-5 -8 0
-5 -9 0
-6 -7 0
-6 -8 0
-6 -9 0
-7 -8 0
-7 -9 0
-8 -9 0
1 2 3 4 5 6 7 8 9 0
-1 -10 0
-1 -11 0
-1 -12 0
-1 -13 0
-1 -14 0
-1 -15 0
-1 -16 0
-1 -17 0
-10 -11 0
-10 -12 0
-10 -13 0
-10 -14 0
-10 -15 0
-10 -16 0
-10 -17 0
-11 -12 0
-11 -13 0
-11 -14 0
-11 -15 0
-11 -16 0
-11 -17 0
-12 -13 0
-12 -14 0
-12 -15 0
-12 -16 0
-12 -17 0
-13 -14 0
-13 -15 0
-13 -16 0
-13 -17 0
-14 -15 0
-14 -16 0
-14 -17 0
-15 -16 0
-15 -17 0
-16 -17 0
1 10 11 12 13 14 15 16 17 0
-2 -10 0
-2 -18 0
-2 -19 0
-2 -20 0
-2 -21 0
-2 -22 0
-2 -23 0
-2 -24 0
-10 -18 0
-10 -19 0
-10 -20 0
-10 -21 0
-10 -22 0
-10 -23 0
-10 -24 0
-18 -19 0
-18 -20 0
-18 -21 0
-18 -22 0
-18 -23 0
-18 -24 0
-19 -20 0
-19 -21 0
-19 -22 0
-19 -23 0
-19 -24 0
-20 -21 0
-20 -22 0
-20 -23 0
-20 -24 0
-21 -22 0
-21 -23 0
-21 -24 0
-22 -23 0
-22 -24 0
-23 -24 0
2 10 18 19 20 21 22 23 24 0
-3 -11 0
-3 -18 0
-3 -25 0
-3 -26 0
-3 -27 0
-3 -28 0
-3 -29 0
-3 -30 0
-11 -18 0
-11 -25 0
-11 -26 0
-11 -27 0
-11 -28 0
-11 -29 0
-11 -30 0
-18 -25 0
-18 -26 0
-18 -27 0
-18 -28 0
-18 -29 0
-18 -30 0
-25 -26 0
-25 -27 0
-25 -28 0
-25 -29 0
-25 -30 0
-26 -27 0
-26 -28 0
-26 -29 0
-26 -30 0
-27 -28 0
-27 -29 0
-27 -30 0
-28 -29 0
-28 -30 0
-29 -30 0
3 11 18 25 26 27 28 29 30 0
-4 -12 0
-4 -19 0
-4 -25 0
-4 -31 0
-4 -32 0
-4 -33 0
-4 -34 0
-4 -35 0
-12 -19 0
-12 -25 0
-12 -31 0
-12 -32 0
-12 -33 0
-12 -34 0
-12 -35 0
-19 -25 0
-19 -31 0
-19 -32 0
-19 -33 0
-19 -34 0
-19 -35 0
-25 -31 0
-25 -32 0
-25 -33 0
-25 -34 0
-25 -35 0
-31 -32 0
-31 -33 0
-31 -34 0
-31 -35 0
-32 -33 0
-32 -34 0
-32 -35 0
-33 -34 0
-33 -35 0
-34 -35 0
4 12 19 25 31 32 33 34 35 0
-5 -13 0
-5 -20 0
-5 -26 0
-5 -31 0
-5 -36 0
-5 -37 0
-5 -38 0
-5 -39 0
-13 -20 0
-13 -26 0
-13 -31 0
-13 -36 0
-13 -37 0
-13 -38 0
-13 -39 0
-20 -26 0
-20 -31 0
-20 -36 0
-20 -37 0
-20 -38 0
-20 -39 0
-26 -31 0
-26 -36 0
-26 -37 0
-26 -38 0
-26 -39 0
-31 -36 0
-31 -37 0
-31 -38 0
-31 -39 0
-36 -37 0
-36 -38 0
-36 -39 0
-37 -38 0
-37 -39 0
-38 -39 0
5 13 20 26 31 36 37 38 39 0
-6 -14 0
-6 -21 0
-6 -27 0
-6 -32 0
-6 -36 0
-6 -40 0
-6 -41 0
-6 -42 0
-14 -21 0
-14 -27 0
-14 -32 0
-14 -36 0
-14 -40 0
-14 -41 0
-14 -42 0
-21 -27 0
-21 -32 0
-21 -36 0
-21 -40 0
-21 -41 0
-21 -42 0
-27 -32 0
-27 -36 0
-27 -40 0
-27 -41 0
-27 -42 0
-32 -36 0
-32 -40 0
-32 -41 0
-32 -42 0
-36 -40 0
-36 -41 0
-36 -42 0
-40 -41 0
-40 -42 0
-41 -42 0
6 14 21 27 32 36 40 41 42 0
-7 -15 0
-7 -22 0
-7 -28 0
-7 -33 0
-7 -37 0
-7 -40 0
-7 -43 0
-7 -44 0
-15 -22 0
-15 -28 0
-15 -33 0
-15 -37 0
-15 -40 0
-15 -43 0
-15 -44 0
-22 -28 0
-22 -33 0
-22 -37 0
-22 -40 0
-22 -43 0
-22 -44 0
-28 -33 0
-28 -37 0
-28 -40 0
-28 -43 0
-28 -44 0
-33 -37 0
-33 -40 0
-33 -43 0
-33 -44 0
-37 -40 0
-37 -43 0
-37 -44 0
-40 -43 0
-40 -44 0
-43 -44 0
7 15 22 28 33 37 40 43 44 0
-8 -16 0
-8 -23 0
-8 -29 0
-8 -34 0
-8 -38 0
-8 -41 0
-8 -43 0
-8 -45 0
-16 -23 0
-16 -29 0
-16 -34 0
-16 -38 0
-16 -41 0
-16 -43 0
-16 -45 0
-23 -29 0
-23 -34 0
-23 -38 0
-23 -41 0
-23 -43 0
-23 -45 0
-29 -34 0
-29 -38 0
-29 -41 0
-29 -43 0
-29 -45 0
-34 -38 0
-34 -41 0
-34 -43 0
-34 -45 0
-38 -41 0
-38 -43 0
-38 -45 0
-41 -43 0
-41 -45 0
-43 -45 0
8 16 23 29 34 38 41 43 45 0
-9 -17 0
-9 -24 0
-9 -30 0
-9 -35 0
-9 -39 0
-9 -42 0
-9 -44 0
-9 -45 0
-17 -24 0
-17 -30 0
-17 -35 0
-17 -39 0
-17 -42 0
-17 -44 0
-17 -45 0
-24 -30 0
-24 -35 0
-24 -39 0
-24 -42 0
-24 -44 0
-24 -45 0
-30 -35 0
-30 -39 0
-30 -42 0
-30 -44 0
-30 -45 0
-35 -39 0
-35 -42 0
-35 -44 0
-35 -45 0
-39 -42 0
-39 -44 0
-39 -45 0
-42 -44 0
-42 -45 0
-44 -45 0
9 17 24 30 35 39 42 44 45 0
